120
1000
200
200
199
198
198
198
197
197
197
197
196
196
195
194
194
194
193
193
193
192
192
192
192
192
191
191
190
189
189
189
189
189
188
188
188
187
187
186
186
185
185
184
184
184
184
183
183
181
180
180
180
180
179
179
179
178
177
176
176
176
176
175
174
173
173
173
172
171
170
170
170
169
168
168
168
168
168
167
166
166
166
166
165
165
165
164
163
163
163
162
162
161
161
161
160
159
159
158
158
158
157
157
157
157
156
154
154
153
153
152
152
152
152
151
151
151
151
150
150
150
